; TLFL consciousness-limit mirror.
; Scope: guarded language for consciousness as an unreachable self-model limit.

(declare-fun proof_self_model () Bool)
(declare-fun bounded_prediction () Bool)
(declare-fun consciousness_limit_horizon () Bool)
(declare-fun guarded_consciousness_approximation () Bool)
(declare-fun absolute_consciousness () Bool)
(declare-fun perfect_predictive_power () Bool)
(declare-fun consciousness () Bool)
(declare-fun consciousness_reached () Bool)
(declare-fun empirical_consciousness () Bool)

; Positive theorem surface:
; proof self-model + bounded prediction gives a consciousness-limit horizon.
(assert
  (=> (and proof_self_model bounded_prediction)
      consciousness_limit_horizon))

; Positive theorem surface:
; the limit horizon gives only a guarded approximation language.
(assert
  (=> consciousness_limit_horizon
      guarded_consciousness_approximation))

; Positive theorem surface:
; absolute consciousness requires perfect predictive power.
(assert
  (=> absolute_consciousness
      perfect_predictive_power))

; Theorem check: proof self-model + bounded prediction -> limit horizon.
(push)
(assert proof_self_model)
(assert bounded_prediction)
(assert (not consciousness_limit_horizon))
(check-sat)
(pop)

; Theorem check: absolute consciousness -> perfect predictive power.
(push)
(assert absolute_consciousness)
(assert (not perfect_predictive_power))
(check-sat)
(pop)

; Guard: proof self-model does not imply consciousness.
(push)
(assert proof_self_model)
(assert (not consciousness))
(check-sat)
(pop)

; Guard: bounded predictive power does not imply perfect predictive power.
(push)
(assert bounded_prediction)
(assert (not perfect_predictive_power))
(check-sat)
(pop)

; Guard: guarded approximation does not imply empirical consciousness.
(push)
(assert guarded_consciousness_approximation)
(assert (not empirical_consciousness))
(check-sat)
(pop)

; Guard: consciousness-limit horizon does not imply reached consciousness.
(push)
(assert consciousness_limit_horizon)
(assert (not consciousness_reached))
(check-sat)
(pop)
